c Reduced graph for queen14_14 generated by Cyril Grelier
p edge 196 4186
e 1 5
e 1 7
e 1 18
e 1 19
e 1 31
e 1 41
e 1 43
e 1 45
e 1 51
e 1 56
e 1 64
e 1 68
e 1 70
e 1 74
e 1 77
e 1 81
e 1 82
e 1 83
e 1 88
e 1 90
e 1 91
e 1 94
e 1 95
e 1 105
e 1 107
e 1 109
e 1 110
e 1 121
e 1 122
e 1 124
e 1 127
e 1 128
e 1 132
e 1 136
e 1 139
e 1 140
e 1 141
e 1 151
e 1 153
e 1 154
e 1 157
e 1 164
e 1 169
e 1 171
e 1 176
e 1 181
e 1 184
e 1 187
e 1 196
e 2 4
e 2 6
e 2 9
e 2 11
e 2 14
e 2 18
e 2 20
e 2 26
e 2 30
e 2 32
e 2 33
e 2 35
e 2 36
e 2 43
e 2 44
e 2 52
e 2 55
e 2 60
e 2 64
e 2 68
e 2 72
e 2 76
e 2 83
e 2 84
e 2 86
e 2 91
e 2 93
e 2 95
e 2 100
e 2 101
e 2 105
e 2 106
e 2 107
e 2 109
e 2 112
e 2 115
e 2 117
e 2 118
e 2 119
e 2 120
e 2 126
e 2 129
e 2 131
e 2 172
e 2 179
e 2 180
e 2 191
e 3 18
e 3 21
e 3 24
e 3 30
e 3 31
e 3 33
e 3 39
e 3 45
e 3 50
e 3 53
e 3 62
e 3 66
e 3 67
e 3 72
e 3 75
e 3 76
e 3 78
e 3 80
e 3 84
e 3 86
e 3 94
e 3 97
e 3 99
e 3 103
e 3 104
e 3 107
e 3 108
e 3 112
e 3 121
e 3 123
e 3 127
e 3 135
e 3 138
e 3 142
e 3 145
e 3 148
e 3 151
e 3 153
e 3 155
e 3 172
e 3 174
e 3 179
e 3 184
e 3 188
e 3 189
e 3 193
e 3 194
e 4 10
e 4 20
e 4 21
e 4 25
e 4 35
e 4 43
e 4 48
e 4 54
e 4 55
e 4 57
e 4 66
e 4 70
e 4 83
e 4 84
e 4 85
e 4 95
e 4 98
e 4 100
e 4 107
e 4 109
e 4 111
e 4 112
e 4 113
e 4 117
e 4 118
e 4 126
e 4 127
e 4 131
e 4 133
e 4 134
e 4 135
e 4 137
e 4 138
e 4 140
e 4 148
e 4 154
e 4 160
e 4 163
e 4 165
e 4 186
e 4 187
e 4 190
e 4 191
e 4 196
e 5 6
e 5 7
e 5 18
e 5 21
e 5 23
e 5 27
e 5 28
e 5 30
e 5 34
e 5 39
e 5 46
e 5 52
e 5 63
e 5 68
e 5 70
e 5 74
e 5 78
e 5 82
e 5 87
e 5 90
e 5 92
e 5 94
e 5 95
e 5 102
e 5 111
e 5 122
e 5 123
e 5 128
e 5 131
e 5 141
e 5 142
e 5 151
e 5 152
e 5 162
e 5 163
e 5 164
e 5 165
e 5 166
e 5 171
e 5 177
e 5 187
e 5 194
e 6 7
e 6 11
e 6 18
e 6 23
e 6 24
e 6 25
e 6 26
e 6 46
e 6 47
e 6 52
e 6 60
e 6 65
e 6 67
e 6 69
e 6 76
e 6 78
e 6 79
e 6 99
e 6 101
e 6 102
e 6 105
e 6 111
e 6 114
e 6 118
e 6 119
e 6 121
e 6 125
e 6 129
e 6 142
e 6 143
e 6 164
e 6 165
e 6 166
e 6 172
e 6 175
e 6 176
e 6 177
e 6 180
e 6 191
e 6 193
e 6 194
e 7 18
e 7 21
e 7 24
e 7 25
e 7 27
e 7 38
e 7 39
e 7 44
e 7 45
e 7 51
e 7 65
e 7 69
e 7 79
e 7 82
e 7 83
e 7 87
e 7 89
e 7 91
e 7 92
e 7 99
e 7 115
e 7 121
e 7 124
e 7 125
e 7 132
e 7 140
e 7 143
e 7 152
e 7 153
e 7 156
e 7 158
e 7 174
e 7 175
e 7 176
e 7 185
e 7 186
e 7 188
e 7 190
e 7 191
e 7 196
e 8 11
e 8 15
e 8 16
e 8 17
e 8 22
e 8 25
e 8 31
e 8 32
e 8 35
e 8 38
e 8 46
e 8 49
e 8 53
e 8 61
e 8 70
e 8 71
e 8 72
e 8 73
e 8 74
e 8 76
e 8 85
e 8 87
e 8 88
e 8 100
e 8 103
e 8 111
e 8 114
e 8 120
e 8 123
e 8 129
e 8 130
e 8 134
e 8 144
e 8 148
e 8 151
e 8 159
e 8 161
e 8 164
e 8 175
e 8 185
e 8 192
e 9 10
e 9 13
e 9 15
e 9 23
e 9 33
e 9 34
e 9 35
e 9 36
e 9 37
e 9 40
e 9 48
e 9 57
e 9 62
e 9 68
e 9 76
e 9 77
e 9 79
e 9 80
e 9 83
e 9 87
e 9 91
e 9 96
e 9 108
e 9 109
e 9 115
e 9 120
e 9 121
e 9 122
e 9 135
e 9 141
e 9 144
e 9 145
e 9 147
e 9 167
e 9 179
e 9 180
e 9 181
e 9 183
e 9 184
e 9 186
e 10 15
e 10 19
e 10 20
e 10 27
e 10 36
e 10 37
e 10 39
e 10 40
e 10 48
e 10 51
e 10 57
e 10 60
e 10 63
e 10 65
e 10 66
e 10 70
e 10 79
e 10 84
e 10 89
e 10 90
e 10 91
e 10 107
e 10 122
e 10 127
e 10 133
e 10 135
e 10 139
e 10 140
e 10 144
e 10 145
e 10 147
e 10 170
e 10 177
e 10 180
e 10 181
e 10 183
e 10 185
e 10 189
e 10 192
e 11 12
e 11 13
e 11 18
e 11 25
e 11 26
e 11 39
e 11 41
e 11 60
e 11 72
e 11 73
e 11 74
e 11 76
e 11 87
e 11 88
e 11 101
e 11 105
e 11 112
e 11 114
e 11 118
e 11 119
e 11 123
e 11 125
e 11 129
e 11 130
e 11 132
e 11 134
e 11 156
e 11 159
e 11 160
e 11 161
e 11 166
e 11 172
e 11 180
e 11 181
e 11 192
e 11 193
e 11 194
e 11 195
e 12 13
e 12 16
e 12 20
e 12 28
e 12 33
e 12 39
e 12 41
e 12 45
e 12 51
e 12 52
e 12 55
e 12 63
e 12 73
e 12 75
e 12 85
e 12 90
e 12 94
e 12 96
e 12 104
e 12 108
e 12 110
e 12 112
e 12 118
e 12 132
e 12 134
e 12 139
e 12 146
e 12 147
e 12 149
e 12 156
e 12 160
e 12 166
e 12 173
e 12 175
e 12 176
e 12 181
e 12 186
e 12 191
e 12 193
e 12 195
e 13 23
e 13 29
e 13 35
e 13 39
e 13 41
e 13 45
e 13 56
e 13 58
e 13 60
e 13 65
e 13 73
e 13 77
e 13 80
e 13 92
e 13 97
e 13 99
e 13 106
e 13 108
e 13 112
e 13 120
e 13 121
e 13 128
e 13 132
e 13 133
e 13 137
e 13 141
e 13 151
e 13 156
e 13 160
e 13 163
e 13 166
e 13 172
e 13 174
e 13 181
e 13 183
e 13 192
e 13 193
e 13 195
e 14 16
e 14 20
e 14 26
e 14 27
e 14 29
e 14 30
e 14 32
e 14 34
e 14 41
e 14 43
e 14 44
e 14 49
e 14 52
e 14 55
e 14 64
e 14 65
e 14 67
e 14 72
e 14 86
e 14 91
e 14 93
e 14 106
e 14 125
e 14 130
e 14 134
e 14 148
e 14 153
e 14 160
e 14 162
e 14 164
e 14 167
e 14 168
e 14 169
e 14 171
e 14 177
e 14 182
e 14 187
e 14 188
e 15 26
e 15 31
e 15 32
e 15 35
e 15 40
e 15 47
e 15 49
e 15 55
e 15 56
e 15 57
e 15 61
e 15 73
e 15 75
e 15 76
e 15 79
e 15 80
e 15 81
e 15 89
e 15 91
e 15 92
e 15 111
e 15 122
e 15 124
e 15 135
e 15 144
e 15 145
e 15 147
e 15 149
e 15 151
e 15 161
e 15 175
e 15 180
e 15 181
e 15 185
e 15 194
e 15 195
e 16 22
e 16 26
e 16 27
e 16 29
e 16 38
e 16 45
e 16 49
e 16 52
e 16 53
e 16 63
e 16 67
e 16 70
e 16 71
e 16 85
e 16 88
e 16 94
e 16 100
e 16 102
e 16 103
e 16 120
e 16 125
e 16 129
e 16 134
e 16 139
e 16 144
e 16 148
e 16 149
e 16 160
e 16 162
e 16 164
e 16 167
e 16 169
e 16 171
e 16 173
e 16 186
e 16 191
e 17 21
e 17 22
e 17 28
e 17 32
e 17 34
e 17 38
e 17 42
e 17 46
e 17 57
e 17 58
e 17 59
e 17 66
e 17 84
e 17 96
e 17 101
e 17 102
e 17 105
e 17 106
e 17 115
e 17 119
e 17 124
e 17 126
e 17 128
e 17 136
e 17 138
e 17 141
e 17 143
e 17 145
e 17 148
e 17 150
e 17 154
e 17 159
e 17 168
e 17 169
e 17 173
e 17 182
e 17 189
e 17 193
e 18 26
e 18 38
e 18 44
e 18 60
e 18 62
e 18 68
e 18 72
e 18 74
e 18 75
e 18 76
e 18 78
e 18 82
e 18 89
e 18 90
e 18 94
e 18 95
e 18 97
e 18 101
e 18 105
e 18 112
e 18 115
e 18 118
e 18 119
e 18 121
e 18 122
e 18 128
e 18 129
e 18 141
e 18 148
e 18 151
e 18 156
e 18 158
e 18 171
e 18 172
e 18 174
e 18 180
e 18 185
e 18 186
e 18 187
e 18 188
e 18 189
e 18 190
e 19 20
e 19 27
e 19 30
e 19 31
e 19 36
e 19 41
e 19 43
e 19 51
e 19 54
e 19 56
e 19 60
e 19 63
e 19 69
e 19 70
e 19 71
e 19 77
e 19 83
e 19 84
e 19 90
e 19 94
e 19 102
e 19 105
e 19 109
e 19 116
e 19 117
e 19 121
e 19 127
e 19 136
e 19 137
e 19 139
e 19 143
e 19 144
e 19 147
e 19 152
e 19 155
e 19 157
e 19 161
e 19 166
e 19 177
e 19 182
e 19 183
e 19 184
e 19 185
e 19 188
e 19 189
e 19 190
e 19 192
e 20 28
e 20 30
e 20 32
e 20 33
e 20 43
e 20 44
e 20 48
e 20 51
e 20 52
e 20 54
e 20 64
e 20 66
e 20 70
e 20 72
e 20 75
e 20 77
e 20 85
e 20 86
e 20 90
e 20 91
e 20 93
e 20 94
e 20 96
e 20 106
e 20 108
e 20 110
e 20 116
e 20 117
e 20 118
e 20 133
e 20 140
e 20 143
e 20 144
e 20 146
e 20 152
e 20 161
e 20 166
e 20 175
e 20 188
e 21 22
e 21 25
e 21 27
e 21 31
e 21 32
e 21 34
e 21 39
e 21 43
e 21 45
e 21 57
e 21 67
e 21 85
e 21 87
e 21 92
e 21 104
e 21 107
e 21 108
e 21 113
e 21 119
e 21 123
e 21 124
e 21 127
e 21 128
e 21 137
e 21 142
e 21 143
e 21 145
e 21 152
e 21 154
e 21 155
e 21 160
e 21 165
e 21 172
e 21 173
e 21 182
e 21 186
e 21 187
e 21 188
e 21 189
e 21 193
e 22 29
e 22 32
e 22 34
e 22 38
e 22 42
e 22 44
e 22 46
e 22 50
e 22 53
e 22 60
e 22 70
e 22 71
e 22 72
e 22 79
e 22 85
e 22 95
e 22 98
e 22 100
e 22 103
e 22 108
e 22 111
e 22 115
e 22 119
e 22 120
e 22 124
e 22 128
e 22 129
e 22 143
e 22 144
e 22 154
e 22 159
e 22 164
e 22 173
e 22 178
e 22 182
e 22 184
e 22 189
e 22 193
e 22 195
e 23 29
e 23 34
e 23 37
e 23 44
e 23 46
e 23 48
e 23 52
e 23 56
e 23 61
e 23 62
e 23 67
e 23 74
e 23 76
e 23 77
e 23 78
e 23 83
e 23 87
e 23 96
e 23 99
e 23 102
e 23 111
e 23 120
e 23 126
e 23 128
e 23 138
e 23 142
e 23 157
e 23 164
e 23 165
e 23 166
e 23 167
e 23 172
e 23 174
e 23 177
e 23 184
e 23 186
e 23 189
e 23 192
e 23 194
e 24 25
e 24 33
e 24 42
e 24 47
e 24 61
e 24 62
e 24 63
e 24 64
e 24 65
e 24 69
e 24 71
e 24 74
e 24 79
e 24 80
e 24 84
e 24 86
e 24 98
e 24 99
e 24 103
e 24 119
e 24 121
e 24 125
e 24 132
e 24 135
e 24 142
e 24 143
e 24 151
e 24 152
e 24 156
e 24 167
e 24 168
e 24 172
e 24 174
e 24 175
e 24 176
e 24 184
e 24 187
e 24 191
e 24 193
e 24 194
e 25 43
e 25 57
e 25 65
e 25 69
e 25 72
e 25 74
e 25 79
e 25 85
e 25 87
e 25 88
e 25 99
e 25 113
e 25 114
e 25 121
e 25 123
e 25 124
e 25 125
e 25 127
e 25 130
e 25 134
e 25 137
e 25 143
e 25 159
e 25 160
e 25 161
e 25 162
e 25 165
e 25 166
e 25 175
e 25 176
e 25 186
e 25 187
e 25 191
e 25 192
e 26 27
e 26 29
e 26 47
e 26 49
e 26 55
e 26 56
e 26 60
e 26 67
e 26 75
e 26 76
e 26 80
e 26 81
e 26 89
e 26 92
e 26 101
e 26 105
e 26 118
e 26 119
e 26 124
e 26 125
e 26 129
e 26 148
e 26 149
e 26 160
e 26 161
e 26 162
e 26 167
e 26 169
e 26 171
e 26 172
e 26 180
e 26 194
e 27 29
e 27 36
e 27 39
e 27 49
e 27 51
e 27 52
e 27 60
e 27 63
e 27 66
e 27 67
e 27 71
e 27 84
e 27 87
e 27 92
e 27 125
e 27 127
e 27 130
e 27 148
e 27 152
e 27 154
e 27 158
e 27 160
e 27 162
e 27 167
e 27 169
e 27 171
e 27 177
e 27 183
e 27 185
e 27 189
e 27 192
e 28 30
e 28 33
e 28 34
e 28 51
e 28 57
e 28 58
e 28 59
e 28 63
e 28 66
e 28 70
e 28 75
e 28 82
e 28 85
e 28 90
e 28 96
e 28 101
e 28 102
e 28 108
e 28 110
e 28 113
e 28 115
e 28 118
e 28 123
e 28 126
e 28 131
e 28 136
e 28 144
e 28 146
e 28 159
e 28 162
e 28 163
e 28 168
e 28 169
e 28 175
e 28 196
e 29 33
e 29 40
e 29 42
e 29 49
e 29 50
e 29 56
e 29 61
e 29 67
e 29 72
e 29 78
e 29 82
e 29 99
e 29 105
e 29 111
e 29 115
e 29 117
e 29 125
e 29 128
e 29 130
e 29 137
e 29 140
e 29 148
e 29 160
e 29 162
e 29 167
e 29 169
e 29 170
e 29 171
e 29 172
e 29 173
e 29 174
e 29 192
e 30 32
e 30 34
e 30 39
e 30 43
e 30 44
e 30 50
e 30 52
e 30 53
e 30 63
e 30 64
e 30 66
e 30 69
e 30 70
e 30 71
e 30 72
e 30 76
e 30 80
e 30 82
e 30 83
e 30 86
e 30 90
e 30 91
e 30 93
e 30 94
e 30 99
e 30 102
e 30 106
e 30 123
e 30 127
e 30 131
e 30 137
e 30 138
e 30 147
e 30 153
e 30 155
e 30 162
e 30 163
e 30 179
e 30 182
e 30 190
e 31 32
e 31 35
e 31 36
e 31 40
e 31 41
e 31 43
e 31 45
e 31 47
e 31 49
e 31 56
e 31 61
e 31 67
e 31 70
e 31 73
e 31 76
e 31 93
e 31 95
e 31 96
e 31 97
e 31 99
e 31 104
e 31 105
e 31 107
e 31 108
e 31 109
e 31 111
e 31 121
e 31 123
e 31 136
e 31 139
e 31 142
e 31 145
e 31 151
e 31 155
e 31 156
e 31 157
e 31 172
e 31 175
e 31 184
e 31 185
e 31 188
e 32 34
e 32 35
e 32 38
e 32 43
e 32 44
e 32 49
e 32 52
e 32 58
e 32 61
e 32 64
e 32 72
e 32 73
e 32 76
e 32 78
e 32 86
e 32 91
e 32 93
e 32 98
e 32 106
e 32 111
e 32 119
e 32 124
e 32 128
e 32 143
e 32 151
e 32 154
e 32 167
e 32 173
e 32 175
e 32 179
e 32 182
e 32 185
e 32 189
e 32 192
e 32 193
e 33 36
e 33 40
e 33 50
e 33 51
e 33 61
e 33 68
e 33 75
e 33 78
e 33 82
e 33 84
e 33 85
e 33 86
e 33 90
e 33 96
e 33 103
e 33 105
e 33 108
e 33 109
e 33 110
e 33 115
e 33 117
e 33 118
e 33 120
e 33 130
e 33 135
e 33 137
e 33 140
e 33 146
e 33 151
e 33 170
e 33 173
e 33 174
e 33 175
e 33 179
e 33 184
e 33 193
e 33 194
e 34 37
e 34 41
e 34 48
e 34 55
e 34 62
e 34 63
e 34 65
e 34 70
e 34 76
e 34 77
e 34 82
e 34 83
e 34 87
e 34 96
e 34 119
e 34 123
e 34 124
e 34 128
e 34 130
e 34 131
e 34 143
e 34 153
e 34 154
e 34 162
e 34 163
e 34 167
e 34 173
e 34 177
e 34 182
e 34 184
e 34 186
e 34 187
e 34 188
e 34 189
e 34 193
e 35 49
e 35 55
e 35 61
e 35 73
e 35 76
e 35 80
e 35 83
e 35 84
e 35 95
e 35 97
e 35 100
e 35 107
e 35 108
e 35 110
e 35 111
e 35 112
e 35 114
e 35 117
e 35 119
e 35 121
e 35 126
e 35 131
e 35 139
e 35 141
e 35 147
e 35 150
e 35 151
e 35 152
e 35 153
e 35 162
e 35 165
e 35 174
e 35 175
e 35 178
e 35 183
e 35 185
e 35 191
e 36 37
e 36 40
e 36 47
e 36 51
e 36 54
e 36 59
e 36 60
e 36 63
e 36 68
e 36 73
e 36 84
e 36 86
e 36 93
e 36 95
e 36 96
e 36 97
e 36 99
e 36 109
e 36 113
e 36 115
e 36 120
e 36 127
e 36 129
e 36 140
e 36 141
e 36 149
e 36 155
e 36 156
e 36 176
e 36 177
e 36 178
e 36 179
e 36 183
e 36 185
e 36 189
e 36 192
e 37 39
e 37 43
e 37 48
e 37 51
e 37 53
e 37 54
e 37 59
e 37 62
e 37 65
e 37 73
e 37 76
e 37 77
e 37 83
e 37 86
e 37 87
e 37 89
e 37 90
e 37 96
e 37 104
e 37 107
e 37 113
e 37 117
e 37 122
e 37 129
e 37 139
e 37 140
e 37 141
e 37 149
e 37 155
e 37 158
e 37 163
e 37 167
e 37 168
e 37 170
e 37 176
e 37 178
e 37 184
e 37 186
e 38 42
e 38 44
e 38 53
e 38 58
e 38 70
e 38 71
e 38 78
e 38 82
e 38 84
e 38 85
e 38 89
e 38 96
e 38 98
e 38 100
e 38 103
e 38 105
e 38 106
e 38 115
e 38 120
e 38 129
e 38 138
e 38 141
e 38 144
e 38 145
e 38 150
e 38 156
e 38 158
e 38 164
e 38 167
e 38 174
e 38 179
e 38 185
e 38 186
e 38 188
e 38 190
e 38 192
e 39 41
e 39 50
e 39 53
e 39 65
e 39 66
e 39 73
e 39 76
e 39 80
e 39 87
e 39 89
e 39 90
e 39 92
e 39 94
e 39 99
e 39 107
e 39 112
e 39 127
e 39 132
e 39 138
e 39 139
e 39 152
e 39 153
e 39 156
e 39 160
e 39 166
e 39 170
e 39 179
e 39 181
e 39 193
e 39 195
e 40 47
e 40 50
e 40 57
e 40 58
e 40 61
e 40 78
e 40 79
e 40 82
e 40 86
e 40 91
e 40 93
e 40 95
e 40 96
e 40 97
e 40 99
e 40 100
e 40 105
e 40 117
e 40 118
e 40 122
e 40 130
e 40 135
e 40 137
e 40 140
e 40 144
e 40 145
e 40 147
e 40 156
e 40 157
e 40 170
e 40 173
e 40 180
e 40 181
e 40 183
e 41 43
e 41 48
e 41 55
e 41 56
e 41 65
e 41 70
e 41 73
e 41 92
e 41 105
e 41 109
e 41 110
e 41 112
e 41 121
e 41 122
e 41 130
e 41 132
e 41 136
e 41 139
e 41 153
e 41 155
e 41 156
e 41 157
e 41 160
e 41 166
e 41 177
e 41 181
e 41 184
e 41 187
e 41 188
e 41 191
e 41 193
e 41 195
e 42 46
e 42 47
e 42 49
e 42 61
e 42 62
e 42 63
e 42 64
e 42 71
e 42 72
e 42 84
e 42 88
e 42 96
e 42 98
e 42 105
e 42 106
e 42 111
e 42 113
e 42 115
e 42 116
e 42 131
e 42 132
e 42 133
e 42 138
e 42 141
e 42 145
e 42 146
e 42 150
e 42 152
e 42 157
e 42 158
e 42 168
e 42 172
e 42 179
e 42 180
e 42 182
e 42 187
e 43 44
e 43 51
e 43 52
e 43 53
e 43 56
e 43 57
e 43 64
e 43 70
e 43 72
e 43 85
e 43 86
e 43 91
e 43 93
e 43 104
e 43 105
e 43 106
e 43 109
e 43 113
e 43 117
e 43 121
e 43 122
e 43 127
e 43 136
e 43 137
e 43 139
e 43 157
e 43 158
e 43 160
e 43 163
e 43 165
e 43 168
e 43 184
e 43 186
e 43 187
e 44 46
e 44 50
e 44 52
e 44 60
e 44 61
e 44 64
e 44 67
e 44 72
e 44 74
e 44 79
e 44 82
e 44 86
e 44 89
e 44 91
e 44 93
e 44 95
e 44 98
e 44 106
e 44 108
e 44 115
e 44 120
e 44 126
e 44 138
e 44 156
e 44 157
e 44 158
e 44 159
e 44 174
e 44 178
e 44 184
e 44 185
e 44 186
e 44 188
e 44 189
e 44 190
e 44 195
e 45 51
e 45 52
e 45 58
e 45 60
e 45 63
e 45 65
e 45 67
e 45 77
e 45 83
e 45 91
e 45 92
e 45 94
e 45 97
e 45 104
e 45 106
e 45 107
e 45 108
e 45 120
e 45 123
e 45 124
e 45 132
e 45 133
e 45 134
e 45 137
e 45 139
e 45 140
e 45 142
e 45 145
e 45 149
e 45 151
e 45 153
e 45 155
e 45 163
e 45 172
e 45 173
e 45 186
e 45 188
e 45 191
e 45 196
e 46 49
e 46 50
e 46 52
e 46 60
e 46 78
e 46 79
e 46 88
e 46 95
e 46 98
e 46 102
e 46 108
e 46 111
e 46 113
e 46 116
e 46 131
e 46 133
e 46 142
e 46 146
e 46 148
e 46 157
e 46 158
e 46 159
e 46 164
e 46 165
e 46 166
e 46 177
e 46 178
e 46 179
e 46 180
e 46 182
e 46 184
e 46 194
e 46 195
e 47 55
e 47 56
e 47 61
e 47 62
e 47 63
e 47 64
e 47 67
e 47 71
e 47 75
e 47 80
e 47 81
e 47 89
e 47 92
e 47 93
e 47 95
e 47 96
e 47 97
e 47 98
e 47 99
e 47 114
e 47 124
e 47 132
e 47 149
e 47 152
e 47 156
e 47 161
e 47 168
e 47 172
e 47 187
e 47 193
e 47 194
e 48 62
e 48 66
e 48 68
e 48 69
e 48 70
e 48 76
e 48 77
e 48 81
e 48 83
e 48 87
e 48 92
e 48 93
e 48 96
e 48 101
e 48 103
e 48 104
e 48 110
e 48 116
e 48 122
e 48 133
e 48 140
e 48 150
e 48 155
e 48 167
e 48 170
e 48 183
e 48 184
e 48 186
e 48 191
e 48 195
e 48 196
e 49 61
e 49 67
e 49 73
e 49 76
e 49 88
e 49 111
e 49 113
e 49 116
e 49 125
e 49 131
e 49 133
e 49 146
e 49 148
e 49 151
e 49 157
e 49 158
e 49 159
e 49 160
e 49 162
e 49 167
e 49 169
e 49 171
e 49 175
e 49 179
e 49 180
e 49 182
e 49 185
e 50 53
e 50 59
e 50 60
e 50 61
e 50 62
e 50 66
e 50 76
e 50 78
e 50 79
e 50 80
e 50 82
e 50 94
e 50 95
e 50 98
e 50 99
e 50 100
e 50 105
e 50 106
e 50 108
e 50 109
e 50 114
e 50 117
e 50 125
e 50 127
e 50 128
e 50 130
e 50 137
e 50 138
e 50 140
e 50 142
e 50 146
e 50 153
e 50 159
e 50 170
e 50 173
e 50 178
e 50 179
e 50 184
e 50 185
e 50 195
e 51 53
e 51 60
e 51 63
e 51 75
e 51 83
e 51 84
e 51 85
e 51 90
e 51 91
e 51 96
e 51 104
e 51 108
e 51 110
e 51 117
e 51 118
e 51 122
e 51 124
e 51 127
e 51 132
e 51 140
e 51 146
e 51 153
e 51 158
e 51 163
e 51 168
e 51 175
e 51 177
e 51 183
e 51 185
e 51 189
e 51 192
e 51 196
e 52 63
e 52 64
e 52 66
e 52 71
e 52 72
e 52 78
e 52 86
e 52 91
e 52 93
e 52 94
e 52 102
e 52 106
e 52 111
e 52 130
e 52 134
e 52 139
e 52 142
e 52 149
e 52 154
e 52 158
e 52 164
e 52 165
e 52 166
e 52 173
e 52 177
e 52 186
e 52 191
e 52 194
e 53 64
e 53 66
e 53 70
e 53 71
e 53 76
e 53 80
e 53 85
e 53 87
e 53 94
e 53 99
e 53 100
e 53 103
e 53 104
e 53 117
e 53 120
e 53 122
e 53 127
e 53 129
e 53 133
e 53 136
e 53 138
e 53 144
e 53 153
e 53 158
e 53 163
e 53 164
e 53 168
e 53 171
e 53 173
e 53 177
e 53 179
e 53 190
e 54 59
e 54 73
e 54 77
e 54 85
e 54 86
e 54 91
e 54 94
e 54 98
e 54 109
e 54 111
e 54 113
e 54 116
e 54 117
e 54 118
e 54 129
e 54 131
e 54 134
e 54 135
e 54 136
e 54 138
e 54 140
e 54 141
e 54 143
e 54 144
e 54 148
e 54 149
e 54 152
e 54 154
e 54 155
e 54 161
e 54 163
e 54 166
e 54 170
e 54 176
e 54 178
e 54 188
e 54 190
e 54 196
e 55 56
e 55 65
e 55 75
e 55 80
e 55 81
e 55 83
e 55 84
e 55 89
e 55 92
e 55 95
e 55 100
e 55 104
e 55 107
e 55 112
e 55 117
e 55 124
e 55 126
e 55 130
e 55 131
e 55 147
e 55 149
e 55 153
e 55 161
e 55 176
e 55 177
e 55 187
e 55 188
e 55 191
e 55 194
e 56 68
e 56 70
e 56 75
e 56 80
e 56 81
e 56 89
e 56 92
e 56 99
e 56 105
e 56 109
e 56 112
e 56 121
e 56 124
e 56 128
e 56 136
e 56 139
e 56 145
e 56 149
e 56 157
e 56 161
e 56 172
e 56 174
e 56 175
e 56 178
e 56 184
e 56 192
e 56 194
e 57 58
e 57 59
e 57 66
e 57 79
e 57 85
e 57 91
e 57 101
e 57 102
e 57 113
e 57 115
e 57 116
e 57 122
e 57 126
e 57 127
e 57 135
e 57 136
e 57 137
e 57 144
e 57 145
e 57 147
e 57 159
e 57 160
e 57 165
e 57 168
e 57 169
e 57 180
e 57 181
e 57 186
e 57 187
e 58 59
e 58 60
e 58 65
e 58 66
e 58 77
e 58 78
e 58 86
e 58 92
e 58 97
e 58 98
e 58 100
e 58 101
e 58 102
e 58 106
e 58 115
e 58 118
e 58 120
e 58 126
e 58 133
e 58 136
e 58 137
e 58 151
e 58 157
e 58 159
e 58 163
e 58 167
e 58 168
e 58 169
e 58 179
e 58 183
e 58 192
e 59 62
e 59 66
e 59 73
e 59 86
e 59 100
e 59 101
e 59 102
e 59 103
e 59 106
e 59 109
e 59 113
e 59 114
e 59 115
e 59 125
e 59 126
e 59 128
e 59 129
e 59 136
e 59 140
e 59 141
e 59 142
e 59 146
e 59 149
e 59 155
e 59 159
e 59 168
e 59 169
e 59 176
e 59 178
e 59 180
e 59 185
e 60 63
e 60 65
e 60 76
e 60 77
e 60 79
e 60 84
e 60 92
e 60 95
e 60 97
e 60 98
e 60 101
e 60 105
e 60 106
e 60 108
e 60 118
e 60 119
e 60 120
e 60 127
e 60 129
e 60 133
e 60 137
e 60 151
e 60 159
e 60 163
e 60 172
e 60 177
e 60 178
e 60 180
e 60 183
e 60 184
e 60 185
e 60 189
e 60 192
e 60 195
e 61 62
e 61 63
e 61 64
e 61 67
e 61 71
e 61 73
e 61 74
e 61 76
e 61 78
e 61 82
e 61 98
e 61 105
e 61 111
e 61 117
e 61 120
e 61 126
e 61 130
e 61 132
e 61 137
e 61 138
e 61 140
e 61 151
e 61 152
e 61 157
e 61 168
e 61 170
e 61 172
e 61 173
e 61 175
e 61 185
e 61 187
e 61 189
e 62 63
e 62 64
e 62 71
e 62 72
e 62 75
e 62 76
e 62 77
e 62 78
e 62 83
e 62 87
e 62 96
e 62 97
e 62 98
e 62 100
e 62 106
e 62 109
e 62 112
e 62 114
e 62 121
e 62 125
e 62 128
e 62 132
e 62 142
e 62 146
e 62 148
e 62 152
e 62 167
e 62 168
e 62 172
e 62 184
e 62 185
e 62 186
e 62 187
e 62 189
e 63 64
e 63 70
e 63 71
e 63 82
e 63 84
e 63 94
e 63 98
e 63 123
e 63 127
e 63 131
e 63 132
e 63 134
e 63 139
e 63 149
e 63 152
e 63 162
e 63 163
e 63 168
e 63 172
e 63 173
e 63 177
e 63 183
e 63 185
e 63 186
e 63 187
e 63 189
e 63 191
e 63 192
e 64 71
e 64 72
e 64 77
e 64 81
e 64 82
e 64 86
e 64 87
e 64 88
e 64 91
e 64 93
e 64 98
e 64 106
e 64 107
e 64 110
e 64 127
e 64 132
e 64 133
e 64 136
e 64 152
e 64 154
e 64 164
e 64 168
e 64 169
e 64 171
e 64 172
e 64 173
e 64 176
e 64 177
e 64 181
e 64 187
e 64 190
e 65 69
e 65 77
e 65 79
e 65 89
e 65 90
e 65 92
e 65 97
e 65 99
e 65 106
e 65 107
e 65 120
e 65 121
e 65 125
e 65 130
e 65 133
e 65 137
e 65 139
e 65 143
e 65 151
e 65 153
e 65 163
e 65 170
e 65 175
e 65 176
e 65 177
e 65 187
e 65 188
e 65 191
e 66 70
e 66 71
e 66 76
e 66 80
e 66 94
e 66 99
e 66 101
e 66 102
e 66 115
e 66 126
e 66 127
e 66 130
e 66 133
e 66 136
e 66 138
e 66 140
e 66 153
e 66 154
e 66 158
e 66 159
e 66 168
e 66 169
e 66 179
e 67 74
e 67 104
e 67 107
e 67 108
e 67 114
e 67 120
e 67 123
e 67 125
e 67 126
e 67 138
e 67 142
e 67 145
e 67 148
e 67 155
e 67 157
e 67 160
e 67 162
e 67 167
e 67 169
e 67 171
e 67 172
e 67 188
e 67 189
e 67 193
e 68 69
e 68 74
e 68 81
e 68 90
e 68 93
e 68 94
e 68 95
e 68 101
e 68 103
e 68 104
e 68 109
e 68 112
e 68 115
e 68 116
e 68 120
e 68 122
e 68 128
e 68 141
e 68 145
e 68 150
e 68 151
e 68 170
e 68 171
e 68 175
e 68 178
e 68 179
e 68 183
e 68 187
e 68 195
e 68 196
e 69 71
e 69 79
e 69 81
e 69 83
e 69 90
e 69 93
e 69 99
e 69 101
e 69 102
e 69 103
e 69 104
e 69 116
e 69 121
e 69 125
e 69 137
e 69 143
e 69 147
e 69 149
e 69 150
e 69 155
e 69 170
e 69 175
e 69 176
e 69 181
e 69 182
e 69 183
e 69 190
e 69 191
e 69 195
e 69 196
e 70 71
e 70 82
e 70 85
e 70 100
e 70 103
e 70 105
e 70 109
e 70 120
e 70 121
e 70 123
e 70 129
e 70 131
e 70 133
e 70 136
e 70 139
e 70 140
e 70 144
e 70 157
e 70 162
e 70 163
e 70 164
e 70 184
e 71 83
e 71 85
e 71 90
e 71 98
e 71 100
e 71 102
e 71 103
e 71 120
e 71 129
e 71 130
e 71 132
e 71 137
e 71 144
e 71 147
e 71 152
e 71 154
e 71 155
e 71 158
e 71 164
e 71 168
e 71 172
e 71 182
e 71 187
e 71 190
e 72 74
e 72 75
e 72 78
e 72 86
e 72 87
e 72 88
e 72 91
e 72 93
e 72 97
e 72 106
e 72 111
e 72 112
e 72 114
e 72 115
e 72 121
e 72 123
e 72 130
e 72 134
e 72 148
e 72 159
e 72 161
e 72 189
e 72 192
e 73 75
e 73 76
e 73 79
e 73 86
e 73 111
e 73 112
e 73 113
e 73 129
e 73 132
e 73 140
e 73 141
e 73 149
e 73 150
e 73 151
e 73 155
e 73 156
e 73 160
e 73 166
e 73 175
e 73 176
e 73 178
e 73 181
e 73 185
e 73 193
e 73 195
e 74 80
e 74 87
e 74 88
e 74 90
e 74 94
e 74 95
e 74 114
e 74 119
e 74 120
e 74 122
e 74 123
e 74 126
e 74 128
e 74 130
e 74 134
e 74 138
e 74 141
e 74 142
e 74 151
e 74 156
e 74 157
e 74 159
e 74 161
e 74 167
e 74 171
e 74 187
e 74 189
e 74 192
e 75 78
e 75 79
e 75 80
e 75 81
e 75 85
e 75 89
e 75 90
e 75 92
e 75 96
e 75 97
e 75 108
e 75 110
e 75 112
e 75 118
e 75 121
e 75 124
e 75 146
e 75 148
e 75 149
e 75 150
e 75 161
e 75 175
e 75 189
e 75 194
e 76 77
e 76 80
e 76 83
e 76 87
e 76 94
e 76 96
e 76 99
e 76 101
e 76 105
e 76 111
e 76 118
e 76 119
e 76 127
e 76 129
e 76 138
e 76 151
e 76 153
e 76 167
e 76 172
e 76 175
e 76 179
e 76 180
e 76 184
e 76 185
e 76 186
e 77 81
e 77 82
e 77 83
e 77 87
e 77 88
e 77 92
e 77 94
e 77 96
e 77 97
e 77 106
e 77 107
e 77 110
e 77 116
e 77 117
e 77 120
e 77 127
e 77 133
e 77 137
e 77 143
e 77 144
e 77 151
e 77 152
e 77 154
e 77 161
e 77 163
e 77 164
e 77 166
e 77 167
e 77 169
e 77 176
e 77 181
e 77 184
e 77 186
e 77 188
e 78 82
e 78 97
e 78 98
e 78 102
e 78 105
e 78 111
e 78 112
e 78 117
e 78 121
e 78 130
e 78 137
e 78 140
e 78 142
e 78 148
e 78 164
e 78 165
e 78 166
e 78 167
e 78 170
e 78 173
e 78 177
e 78 179
e 78 189
e 78 192
e 78 194
e 79 91
e 79 95
e 79 98
e 79 99
e 79 108
e 79 121
e 79 122
e 79 125
e 79 135
e 79 143
e 79 144
e 79 145
e 79 147
e 79 150
e 79 159
e 79 175
e 79 176
e 79 178
e 79 180
e 79 181
e 79 184
e 79 191
e 79 195
e 80 81
e 80 89
e 80 92
e 80 94
e 80 99
e 80 108
e 80 119
e 80 121
e 80 124
e 80 127
e 80 138
e 80 141
e 80 142
e 80 149
e 80 153
e 80 156
e 80 161
e 80 167
e 80 179
e 80 183
e 80 194
e 81 82
e 81 88
e 81 89
e 81 92
e 81 93
e 81 101
e 81 103
e 81 104
e 81 107
e 81 110
e 81 116
e 81 124
e 81 127
e 81 149
e 81 150
e 81 154
e 81 161
e 81 164
e 81 169
e 81 170
e 81 176
e 81 181
e 81 183
e 81 194
e 81 195
e 81 196
e 82 88
e 82 89
e 82 105
e 82 107
e 82 110
e 82 115
e 82 117
e 82 123
e 82 127
e 82 130
e 82 131
e 82 137
e 82 140
e 82 154
e 82 156
e 82 158
e 82 162
e 82 163
e 82 164
e 82 169
e 82 170
e 82 173
e 82 174
e 82 176
e 82 181
e 82 185
e 82 186
e 82 188
e 82 190
e 83 84
e 83 87
e 83 90
e 83 91
e 83 95
e 83 96
e 83 100
e 83 102
e 83 107
e 83 112
e 83 117
e 83 124
e 83 126
e 83 131
e 83 132
e 83 137
e 83 140
e 83 147
e 83 153
e 83 155
e 83 167
e 83 182
e 83 184
e 83 186
e 83 190
e 83 191
e 83 196
e 84 86
e 84 95
e 84 96
e 84 100
e 84 103
e 84 105
e 84 106
e 84 107
e 84 112
e 84 117
e 84 126
e 84 127
e 84 131
e 84 135
e 84 138
e 84 141
e 84 145
e 84 150
e 84 151
e 84 174
e 84 177
e 84 183
e 84 184
e 84 185
e 84 189
e 84 191
e 84 192
e 84 193
e 84 194
e 85 90
e 85 91
e 85 96
e 85 100
e 85 103
e 85 108
e 85 110
e 85 113
e 85 118
e 85 120
e 85 127
e 85 129
e 85 131
e 85 136
e 85 137
e 85 144
e 85 146
e 85 160
e 85 164
e 85 165
e 85 170
e 85 175
e 85 186
e 85 187
e 86 91
e 86 93
e 86 100
e 86 103
e 86 106
e 86 113
e 86 118
e 86 129
e 86 135
e 86 140
e 86 141
e 86 149
e 86 151
e 86 155
e 86 157
e 86 174
e 86 176
e 86 178
e 86 183
e 86 184
e 86 193
e 86 194
e 87 88
e 87 92
e 87 96
e 87 114
e 87 123
e 87 130
e 87 133
e 87 134
e 87 136
e 87 152
e 87 159
e 87 161
e 87 167
e 87 171
e 87 173
e 87 177
e 87 184
e 87 186
e 87 190
e 87 192
e 88 102
e 88 107
e 88 110
e 88 113
e 88 114
e 88 116
e 88 123
e 88 127
e 88 130
e 88 131
e 88 133
e 88 134
e 88 146
e 88 154
e 88 157
e 88 158
e 88 159
e 88 161
e 88 164
e 88 169
e 88 176
e 88 179
e 88 180
e 88 181
e 88 182
e 88 192
e 89 90
e 89 92
e 89 107
e 89 115
e 89 123
e 89 124
e 89 132
e 89 139
e 89 143
e 89 149
e 89 156
e 89 158
e 89 161
e 89 165
e 89 170
e 89 171
e 89 174
e 89 185
e 89 186
e 89 188
e 89 190
e 89 194
e 90 94
e 90 95
e 90 96
e 90 102
e 90 107
e 90 108
e 90 110
e 90 118
e 90 122
e 90 128
e 90 137
e 90 139
e 90 141
e 90 146
e 90 147
e 90 151
e 90 155
e 90 170
e 90 171
e 90 175
e 90 182
e 90 187
e 90 190
e 91 93
e 91 106
e 91 122
e 91 124
e 91 131
e 91 132
e 91 135
e 91 136
e 91 140
e 91 144
e 91 145
e 91 147
e 91 153
e 91 170
e 91 180
e 91 181
e 91 196
e 92 97
e 92 106
e 92 110
e 92 120
e 92 122
e 92 124
e 92 133
e 92 137
e 92 149
e 92 151
e 92 152
e 92 155
e 92 161
e 92 163
e 92 191
e 92 194
e 93 95
e 93 96
e 93 97
e 93 99
e 93 101
e 93 103
e 93 104
e 93 106
e 93 116
e 93 126
e 93 129
e 93 135
e 93 146
e 93 150
e 93 156
e 93 170
e 93 183
e 93 195
e 93 196
e 94 95
e 94 99
e 94 116
e 94 117
e 94 122
e 94 127
e 94 128
e 94 134
e 94 138
e 94 139
e 94 141
e 94 143
e 94 144
e 94 149
e 94 151
e 94 152
e 94 153
e 94 161
e 94 166
e 94 171
e 94 173
e 94 179
e 94 186
e 94 187
e 94 188
e 94 191
e 95 96
e 95 97
e 95 98
e 95 99
e 95 100
e 95 107
e 95 108
e 95 112
e 95 117
e 95 122
e 95 126
e 95 128
e 95 131
e 95 141
e 95 151
e 95 156
e 95 159
e 95 171
e 95 178
e 95 184
e 95 187
e 95 191
e 95 195
e 96 97
e 96 99
e 96 105
e 96 106
e 96 108
e 96 110
e 96 118
e 96 138
e 96 141
e 96 145
e 96 146
e 96 150
e 96 156
e 96 167
e 96 175
e 96 184
e 96 186
e 97 99
e 97 106
e 97 110
e 97 112
e 97 114
e 97 119
e 97 120
e 97 121
e 97 133
e 97 137
e 97 139
e 97 147
e 97 148
e 97 150
e 97 151
e 97 152
e 97 153
e 97 156
e 97 162
e 97 163
e 97 165
e 97 174
e 97 178
e 97 189
e 98 108
e 98 109
e 98 111
e 98 118
e 98 132
e 98 134
e 98 135
e 98 138
e 98 148
e 98 152
e 98 154
e 98 159
e 98 163
e 98 167
e 98 168
e 98 172
e 98 178
e 98 179
e 98 184
e 98 187
e 98 190
e 98 192
e 98 195
e 98 196
e 99 121
e 99 125
e 99 127
e 99 128
e 99 138
e 99 143
e 99 153
e 99 156
e 99 172
e 99 174
e 99 175
e 99 176
e 99 179
e 99 191
e 99 192
e 100 103
e 100 106
e 100 107
e 100 109
e 100 112
e 100 114
e 100 117
e 100 118
e 100 120
e 100 125
e 100 126
e 100 128
e 100 129
e 100 131
e 100 142
e 100 144
e 100 146
e 100 157
e 100 164
e 100 183
e 100 185
e 100 191
e 101 102
e 101 103
e 101 104
e 101 105
e 101 115
e 101 116
e 101 118
e 101 119
e 101 126
e 101 129
e 101 136
e 101 150
e 101 159
e 101 168
e 101 169
e 101 170
e 101 172
e 101 180
e 101 183
e 101 195
e 101 196
e 102 111
e 102 115
e 102 126
e 102 136
e 102 137
e 102 142
e 102 147
e 102 155
e 102 159
e 102 164
e 102 165
e 102 166
e 102 168
e 102 169
e 102 177
e 102 182
e 102 190
e 102 194
e 103 104
e 103 116
e 103 120
e 103 129
e 103 135
e 103 144
e 103 150
e 103 151
e 103 164
e 103 170
e 103 174
e 103 180
e 103 183
e 103 184
e 103 193
e 103 194
e 103 195
e 103 196
e 104 107
e 104 108
e 104 116
e 104 117
e 104 122
e 104 123
e 104 142
e 104 145
e 104 147
e 104 150
e 104 155
e 104 158
e 104 163
e 104 168
e 104 170
e 104 172
e 104 176
e 104 183
e 104 188
e 104 195
e 104 196
e 105 106
e 105 109
e 105 117
e 105 118
e 105 119
e 105 121
e 105 129
e 105 130
e 105 136
e 105 137
e 105 138
e 105 139
e 105 140
e 105 141
e 105 145
e 105 150
e 105 157
e 105 170
e 105 172
e 105 173
e 105 180
e 105 184
e 106 109
e 106 114
e 106 120
e 106 125
e 106 128
e 106 133
e 106 137
e 106 138
e 106 141
e 106 142
e 106 145
e 106 146
e 106 150
e 106 151
e 106 163
e 106 185
e 107 108
e 107 110
e 107 112
e 107 117
e 107 123
e 107 126
e 107 127
e 107 131
e 107 139
e 107 142
e 107 145
e 107 154
e 107 155
e 107 164
e 107 169
e 107 170
e 107 172
e 107 176
e 107 181
e 107 188
e 107 191
e 108 110
e 108 118
e 108 121
e 108 123
e 108 141
e 108 142
e 108 145
e 108 146
e 108 155
e 108 159
e 108 172
e 108 175
e 108 178
e 108 183
e 108 184
e 108 188
e 108 195
e 109 111
e 109 114
e 109 115
e 109 118
e 109 120
e 109 121
e 109 125
e 109 128
e 109 134
e 109 135
e 109 136
e 109 138
e 109 139
e 109 142
e 109 146
e 109 148
e 109 154
e 109 157
e 109 163
e 109 179
e 109 184
e 109 185
e 109 190
e 109 196
e 110 114
e 110 118
e 110 119
e 110 122
e 110 127
e 110 139
e 110 146
e 110 147
e 110 150
e 110 152
e 110 153
e 110 154
e 110 155
e 110 162
e 110 164
e 110 165
e 110 169
e 110 174
e 110 175
e 110 176
e 110 178
e 110 181
e 110 191
e 111 115
e 111 118
e 111 134
e 111 135
e 111 138
e 111 142
e 111 148
e 111 151
e 111 154
e 111 163
e 111 164
e 111 165
e 111 166
e 111 175
e 111 177
e 111 185
e 111 190
e 111 194
e 111 196
e 112 117
e 112 121
e 112 126
e 112 131
e 112 132
e 112 145
e 112 148
e 112 156
e 112 160
e 112 166
e 112 175
e 112 178
e 112 181
e 112 189
e 112 191
e 112 193
e 112 195
e 113 116
e 113 127
e 113 129
e 113 131
e 113 133
e 113 137
e 113 140
e 113 141
e 113 144
e 113 146
e 113 149
e 113 155
e 113 157
e 113 158
e 113 160
e 113 165
e 113 176
e 113 178
e 113 179
e 113 180
e 113 182
e 113 186
e 113 187
e 113 196
e 114 119
e 114 123
e 114 125
e 114 128
e 114 130
e 114 134
e 114 139
e 114 142
e 114 146
e 114 147
e 114 150
e 114 152
e 114 153
e 114 159
e 114 161
e 114 162
e 114 165
e 114 174
e 114 178
e 114 185
e 114 192
e 114 193
e 115 120
e 115 126
e 115 136
e 115 156
e 115 158
e 115 159
e 115 168
e 115 169
e 115 174
e 115 179
e 115 185
e 115 186
e 115 188
e 115 190
e 116 117
e 116 131
e 116 133
e 116 143
e 116 144
e 116 146
e 116 150
e 116 152
e 116 157
e 116 158
e 116 161
e 116 166
e 116 170
e 116 179
e 116 180
e 116 182
e 116 183
e 116 188
e 116 195
e 116 196
e 117 122
e 117 126
e 117 130
e 117 131
e 117 137
e 117 140
e 117 143
e 117 144
e 117 152
e 117 158
e 117 161
e 117 163
e 117 166
e 117 168
e 117 170
e 117 173
e 117 188
e 117 191
e 118 119
e 118 129
e 118 134
e 118 135
e 118 138
e 118 146
e 118 148
e 118 154
e 118 157
e 118 163
e 118 172
e 118 175
e 118 180
e 118 183
e 118 190
e 118 196
e 119 124
e 119 128
e 119 129
e 119 139
e 119 142
e 119 143
e 119 147
e 119 150
e 119 152
e 119 153
e 119 154
e 119 156
e 119 162
e 119 165
e 119 167
e 119 172
e 119 173
e 119 174
e 119 178
e 119 180
e 119 182
e 119 189
e 119 193
e 120 126
e 120 129
e 120 133
e 120 137
e 120 138
e 120 144
e 120 151
e 120 157
e 120 163
e 120 164
e 120 179
e 120 189
e 121 125
e 121 136
e 121 139
e 121 141
e 121 143
e 121 148
e 121 157
e 121 175
e 121 176
e 121 183
e 121 184
e 121 189
e 121 191
e 122 128
e 122 135
e 122 141
e 122 144
e 122 145
e 122 147
e 122 151
e 122 155
e 122 158
e 122 163
e 122 168
e 122 171
e 122 180
e 122 181
e 122 187
e 122 191
e 123 130
e 123 131
e 123 132
e 123 134
e 123 142
e 123 143
e 123 145
e 123 155
e 123 159
e 123 161
e 123 162
e 123 163
e 123 165
e 123 171
e 123 172
e 123 188
e 123 192
e 124 128
e 124 132
e 124 140
e 124 143
e 124 149
e 124 153
e 124 154
e 124 161
e 124 162
e 124 166
e 124 173
e 124 182
e 124 189
e 124 193
e 124 194
e 124 196
e 125 128
e 125 142
e 125 143
e 125 146
e 125 148
e 125 160
e 125 162
e 125 167
e 125 169
e 125 171
e 125 175
e 125 176
e 125 185
e 125 191
e 125 194
e 126 129
e 126 131
e 126 135
e 126 136
e 126 138
e 126 146
e 126 157
e 126 159
e 126 168
e 126 169
e 126 189
e 126 191
e 127 137
e 127 138
e 127 153
e 127 154
e 127 160
e 127 164
e 127 165
e 127 169
e 127 176
e 127 177
e 127 179
e 127 181
e 127 183
e 127 185
e 127 186
e 127 187
e 127 189
e 127 192
e 128 141
e 128 142
e 128 143
e 128 146
e 128 151
e 128 154
e 128 171
e 128 172
e 128 173
e 128 174
e 128 182
e 128 185
e 128 187
e 128 189
e 128 192
e 128 193
e 129 135
e 129 140
e 129 141
e 129 144
e 129 146
e 129 149
e 129 155
e 129 164
e 129 172
e 129 176
e 129 178
e 129 180
e 130 134
e 130 137
e 130 140
e 130 153
e 130 154
e 130 158
e 130 159
e 130 161
e 130 170
e 130 173
e 130 177
e 130 187
e 130 188
e 130 192
e 131 133
e 131 136
e 131 146
e 131 157
e 131 158
e 131 162
e 131 163
e 131 170
e 131 179
e 131 180
e 131 182
e 131 191
e 132 140
e 132 143
e 132 152
e 132 153
e 132 156
e 132 160
e 132 165
e 132 166
e 132 168
e 132 171
e 132 172
e 132 181
e 132 187
e 132 193
e 132 195
e 132 196
e 133 136
e 133 137
e 133 140
e 133 146
e 133 151
e 133 157
e 133 158
e 133 163
e 133 171
e 133 173
e 133 177
e 133 179
e 133 180
e 133 182
e 133 190
e 134 135
e 134 138
e 134 139
e 134 148
e 134 149
e 134 154
e 134 159
e 134 161
e 134 163
e 134 164
e 134 168
e 134 173
e 134 182
e 134 186
e 134 190
e 134 191
e 134 192
e 134 196
e 135 138
e 135 144
e 135 145
e 135 146
e 135 147
e 135 148
e 135 151
e 135 154
e 135 163
e 135 174
e 135 180
e 135 181
e 135 184
e 135 190
e 135 193
e 135 194
e 135 196
e 136 139
e 136 157
e 136 159
e 136 168
e 136 169
e 136 170
e 136 171
e 136 173
e 136 177
e 136 184
e 136 190
e 137 140
e 137 147
e 137 151
e 137 155
e 137 160
e 137 163
e 137 165
e 137 170
e 137 173
e 137 182
e 137 186
e 137 187
e 137 190
e 138 141
e 138 145
e 138 148
e 138 150
e 138 153
e 138 154
e 138 157
e 138 163
e 138 179
e 138 189
e 138 190
e 138 196
e 139 147
e 139 149
e 139 150
e 139 152
e 139 153
e 139 157
e 139 162
e 139 165
e 139 170
e 139 173
e 139 174
e 139 178
e 139 184
e 139 186
e 139 191
e 140 141
e 140 149
e 140 153
e 140 155
e 140 170
e 140 173
e 140 176
e 140 178
e 140 196
e 141 145
e 141 149
e 141 150
e 141 151
e 141 155
e 141 171
e 141 176
e 141 178
e 141 183
e 141 187
e 142 145
e 142 146
e 142 155
e 142 156
e 142 164
e 142 165
e 142 166
e 142 167
e 142 172
e 142 177
e 142 185
e 142 188
e 142 194
e 143 144
e 143 152
e 143 154
e 143 161
e 143 165
e 143 166
e 143 171
e 143 173
e 143 175
e 143 176
e 143 182
e 143 188
e 143 189
e 143 191
e 143 193
e 144 145
e 144 147
e 144 152
e 144 161
e 144 164
e 144 166
e 144 180
e 144 181
e 144 188
e 144 196
e 145 147
e 145 150
e 145 155
e 145 172
e 145 175
e 145 178
e 145 180
e 145 181
e 145 188
e 146 157
e 146 158
e 146 175
e 146 179
e 146 180
e 146 182
e 146 185
e 147 150
e 147 152
e 147 153
e 147 155
e 147 162
e 147 165
e 147 174
e 147 176
e 147 178
e 147 180
e 147 181
e 147 182
e 147 190
e 148 154
e 148 160
e 148 162
e 148 163
e 148 167
e 148 169
e 148 171
e 148 189
e 148 190
e 148 196
e 149 155
e 149 161
e 149 173
e 149 176
e 149 178
e 149 181
e 149 186
e 149 191
e 149 194
e 150 152
e 150 153
e 150 162
e 150 165
e 150 170
e 150 174
e 150 178
e 150 183
e 150 195
e 150 196
e 151 163
e 151 171
e 151 174
e 151 175
e 151 184
e 151 185
e 151 187
e 151 193
e 151 194
e 152 153
e 152 161
e 152 162
e 152 165
e 152 166
e 152 168
e 152 172
e 152 174
e 152 178
e 152 187
e 152 188
e 153 162
e 153 165
e 153 174
e 153 177
e 153 178
e 153 179
e 153 187
e 153 188
e 153 196
e 154 158
e 154 163
e 154 164
e 154 169
e 154 173
e 154 176
e 154 181
e 154 182
e 154 189
e 154 190
e 154 193
e 154 196
e 155 172
e 155 176
e 155 178
e 155 182
e 155 188
e 155 190
e 155 191
e 156 158
e 156 160
e 156 166
e 156 167
e 156 174
e 156 181
e 156 185
e 156 186
e 156 188
e 156 190
e 156 193
e 156 195
e 157 158
e 157 179
e 157 180
e 157 182
e 157 183
e 157 184
e 157 189
e 158 163
e 158 168
e 158 174
e 158 179
e 158 180
e 158 182
e 158 185
e 158 186
e 158 188
e 158 190
e 159 161
e 159 168
e 159 169
e 159 178
e 159 184
e 159 192
e 159 195
e 160 161
e 160 162
e 160 165
e 160 166
e 160 167
e 160 169
e 160 171
e 160 181
e 160 186
e 160 187
e 160 193
e 160 195
e 161 166
e 161 188
e 161 192
e 161 194
e 162 163
e 162 165
e 162 166
e 162 167
e 162 169
e 162 171
e 162 174
e 162 178
e 163 168
e 163 190
e 163 196
e 164 165
e 164 166
e 164 168
e 164 169
e 164 176
e 164 177
e 164 181
e 164 182
e 164 194
e 165 166
e 165 171
e 165 174
e 165 177
e 165 178
e 165 186
e 165 187
e 165 194
e 166 177
e 166 181
e 166 188
e 166 193
e 166 194
e 166 195
e 167 169
e 167 171
e 167 179
e 167 184
e 167 186
e 167 192
e 168 169
e 168 172
e 168 182
e 168 187
e 169 171
e 169 176
e 169 181
e 170 173
e 170 183
e 170 195
e 170 196
e 171 173
e 171 177
e 171 187
e 171 190
e 172 174
e 172 180
e 172 187
e 172 188
e 172 192
e 173 177
e 173 182
e 173 186
e 173 189
e 173 190
e 173 191
e 173 193
e 174 178
e 174 184
e 174 185
e 174 186
e 174 188
e 174 190
e 174 192
e 174 193
e 174 194
e 175 176
e 175 178
e 175 185
e 175 191
e 176 178
e 176 181
e 176 191
e 177 183
e 177 185
e 177 187
e 177 188
e 177 189
e 177 190
e 177 192
e 177 194
e 178 184
e 178 195
e 179 180
e 179 182
e 179 192
e 180 181
e 180 182
e 181 193
e 181 195
e 182 189
e 182 190
e 182 193
e 183 185
e 183 189
e 183 192
e 183 195
e 183 196
e 184 186
e 184 193
e 184 194
e 184 195
e 185 186
e 185 188
e 185 189
e 185 190
e 185 192
e 186 187
e 186 188
e 186 190
e 186 191
e 187 188
e 188 190
e 189 192
e 189 193
e 190 196
e 193 194
e 193 195
e 195 196
